n_res = 5;
rcap = [15, 11, 14, 56, 48];
rtype = [1, 1, 1, 2, 2];
n_tasks = 16;
modes = [ {1, 2, 3}, {4, 5, 6}, {7, 8, 9}, {10, 11, 12}, {13, 14, 15}, {16, 17, 18}, {19, 20, 21}, {22, 23, 24}, {25, 26, 27}, {28, 29, 30}, {31, 32, 33}, {34, 35, 36}, {37, 38, 39}, {40, 41, 42}, {43, 44, 45}, {46, 47, 48} ];
succ = [ {5, 6, 13}, {4, 7, 9}, {4, 14}, {10, 13}, {14, 15}, {8, 9}, {8, 10, 13}, {11, 16}, {10, 12, 16}, {15}, {12, 15}, {14}, {16}, {}, {}, {} ];
n_opt = 48;
dur = [7, 10, 10, 5, 5, 6, 2, 2, 5, 1, 4, 8, 6, 7, 9, 1, 7, 10, 2, 9, 10, 2, 6, 10, 9, 9, 10, 1, 1, 2, 6, 7, 9, 1, 3, 3, 2, 7, 8, 6, 7, 10, 7, 9, 9, 2, 3, 5];
rreq = [|  9,  9,  0,  0,  0,  0,  0, 10,  0,  8,  5,  3,  5,  5,  3,  4,  0,  0,  0,  7,  1,  8,  0,  0,  0,  0, 10,  9,  0,  9,  2,  0,  0, 10,  0, 10,  0,  8,  7,  1,  0,  0,  0,  8,  0,  0,  7,  5
        |  1,  0,  0,  0,  0,  0,  0,  0,  0,  3,  0,  3,  5,  0,  0,  0,  6,  5,  3,  3,  0,  0,  7,  4,  7,  0,  0,  5,  0,  0,  0,  7,  7,  0,  6,  0,  3,  0,  0,  5,  0,  0, 10,  9,  0,  0,  0,  6
        |  0,  0,  5,  8, 10,  5,  5,  5,  4,  8,  6,  5,  0,  0,  0,  0,  0,  0,  0,  9,  8,  9,  6,  0,  7,  8,  0,  3,  7,  0,  8,  0,  2,  4,  0,  0,  0,  4,  1,  0,  4,  3,  0,  0,  5,  6,  0,  6
        |  0,  7,  0,  8,  0,  0,  0,  7,  7,  0,  0,  0,  0,  6,  0,  0,  7,  2,  7,  0,  4,  0,  8,  6,  0,  6,  0,  0,  0,  7,  0,  4,  0,  0,  8,  0, 10,  6,  4,  9,  0,  0,  5,  4,  0,  8,  5,  0
        |  7,  0,  6,  0,  8,  2,  2,  0,  0,  5,  4,  4,  8,  0,  6,  2,  0,  0,  0,  8,  0,  1,  0,  0,  6,  0,  6,  9,  8,  0,  6,  0,  5,  8,  0,  3,  0,  0,  0,  0,  7,  6,  0,  0,  7,  0,  0,  7 |];
